certificates/rado_a5_c119_N24.cnf
c Rad2 upper bound instance: x1 + 5*x2 - x3 = 119, interval [1,24]
p cnf 24 146
1 2 24 0
-1 -2 -24 0
2 3 24 0
-2 -3 -24 0
3 4 24 0
-3 -4 -24 0
4 5 24 0
-4 -5 -24 0
1 5 23 0
-1 -5 -23 0
5 6 24 0
-5 -6 -24 0
2 6 23 0
-2 -6 -23 0
6 7 24 0
-6 -7 -24 0
3 7 23 0
-3 -7 -23 0
7 8 24 0
-7 -8 -24 0
4 8 23 0
-4 -8 -23 0
8 9 24 0
-8 -9 -24 0
5 9 23 0
-5 -9 -23 0
9 10 24 0
-9 -10 -24 0
1 10 22 0
-1 -10 -22 0
6 10 23 0
-6 -10 -23 0
10 11 24 0
-10 -11 -24 0
2 11 22 0
-2 -11 -22 0
7 11 23 0
-7 -11 -23 0
11 12 24 0
-11 -12 -24 0
3 12 22 0
-3 -12 -22 0
8 12 23 0
-8 -12 -23 0
12 13 24 0
-12 -13 -24 0
4 13 22 0
-4 -13 -22 0
9 13 23 0
-9 -13 -23 0
13 14 24 0
-13 -14 -24 0
5 14 22 0
-5 -14 -22 0
10 14 23 0
-10 -14 -23 0
14 15 24 0
-14 -15 -24 0
1 15 21 0
-1 -15 -21 0
6 15 22 0
-6 -15 -22 0
11 15 23 0
-11 -15 -23 0
15 16 24 0
-15 -16 -24 0
2 16 21 0
-2 -16 -21 0
7 16 22 0
-7 -16 -22 0
12 16 23 0
-12 -16 -23 0
16 17 24 0
-16 -17 -24 0
3 17 21 0
-3 -17 -21 0
8 17 22 0
-8 -17 -22 0
13 17 23 0
-13 -17 -23 0
17 18 24 0
-17 -18 -24 0
4 18 21 0
-4 -18 -21 0
9 18 22 0
-9 -18 -22 0
14 18 23 0
-14 -18 -23 0
18 19 24 0
-18 -19 -24 0
5 19 21 0
-5 -19 -21 0
10 19 22 0
-10 -19 -22 0
15 19 23 0
-15 -19 -23 0
19 20 24 0
-19 -20 -24 0
1 20 0
-1 -20 0
6 20 21 0
-6 -20 -21 0
11 20 22 0
-11 -20 -22 0
16 20 23 0
-16 -20 -23 0
20 21 24 0
-20 -21 -24 0
2 20 21 0
-2 -20 -21 0
7 21 0
-7 -21 0
12 21 22 0
-12 -21 -22 0
17 21 23 0
-17 -21 -23 0
21 22 24 0
-21 -22 -24 0
3 20 22 0
-3 -20 -22 0
8 21 22 0
-8 -21 -22 0
13 22 0
-13 -22 0
18 22 23 0
-18 -22 -23 0
22 23 24 0
-22 -23 -24 0
4 20 23 0
-4 -20 -23 0
9 21 23 0
-9 -21 -23 0
14 22 23 0
-14 -22 -23 0
19 23 0
-19 -23 0
23 24 0
-23 -24 0
5 20 24 0
-5 -20 -24 0
10 21 24 0
-10 -21 -24 0
15 22 24 0
-15 -22 -24 0
20 23 24 0
-20 -23 -24 0
