certificates/rado_a5_c119_N24.drat
-24 0
23 0
-19 0
18 0
20 0
-14 0
-22 0
-1 0
-16 0
-4 0
13 0
5 0
15 0
21 0
10 0
2 0
7 0
17 0
3 0
-9 0
0
